NAME : mEgtspf.pid28567.gtsp
TYPE : ATSP
DIMENSION : 27
EDGE_WEIGHT_TYPE : EXPLICIT
EDGE_WEIGHT_FORMAT : FULL_MATRIX
EDGE_WEIGHT_SECTION
999999 5368709 5368709 5368726 5368725 5368724 5368725 5368756 5368757 5368756 5368755 5368750 5368751 5368752 5368751 5368734 5368735 5368734 5368733 5368744 5368745 5368744 5368743 5368748 5368747 5368746 5368747 
5368709 999999 5368709 5368744 5368743 5368742 5368743 5368732 5368731 5368732 5368733 5368742 5368743 5368744 5368743 5368734 5368733 5368732 5368733 5368724 5368723 5368724 5368725 5368734 5368733 5368732 5368733 
5368709 5368709 999999 5368736 5368735 5368734 5368735 5368738 5368739 5368738 5368737 5368728 5368729 5368730 5368729 5368716 5368717 5368716 5368715 5368726 5368727 5368726 5368725 5368740 5368739 5368738 5368739 
5368709 5368709 5368709 999999 0 10737418 10737418 5368752 5368753 5368752 5368751 5368752 5368753 5368754 5368753 5368734 5368735 5368734 5368733 5368740 5368739 5368740 5368741 5368740 5368739 5368738 5368739 
5368709 5368709 5368709 10737418 999999 0 10737418 5368753 5368754 5368753 5368752 5368753 5368754 5368755 5368754 5368735 5368736 5368735 5368734 5368741 5368740 5368741 5368742 5368741 5368740 5368739 5368740 
5368709 5368709 5368709 10737418 10737418 999999 0 5368752 5368753 5368752 5368751 5368752 5368753 5368754 5368753 5368734 5368735 5368734 5368733 5368740 5368739 5368740 5368741 5368740 5368739 5368738 5368739 
5368709 5368709 5368709 0 10737418 10737418 999999 5368751 5368752 5368751 5368750 5368751 5368752 5368753 5368752 5368733 5368734 5368733 5368732 5368739 5368738 5368739 5368740 5368739 5368738 5368737 5368738 
5368709 5368709 5368709 5368752 5368751 5368750 5368751 999999 0 10737418 10737418 5368732 5368733 5368732 5368733 5368732 5368731 5368730 5368731 5368722 5368721 5368720 5368721 5368736 5368735 5368734 5368735 
5368709 5368709 5368709 5368753 5368752 5368751 5368752 10737418 999999 0 10737418 5368733 5368734 5368733 5368734 5368733 5368732 5368731 5368732 5368723 5368722 5368721 5368722 5368737 5368736 5368735 5368736 
5368709 5368709 5368709 5368754 5368753 5368752 5368753 10737418 10737418 999999 0 5368734 5368735 5368734 5368735 5368734 5368733 5368732 5368733 5368724 5368723 5368722 5368723 5368738 5368737 5368736 5368737 
5368709 5368709 5368709 5368753 5368752 5368751 5368752 0 10737418 10737418 999999 5368733 5368734 5368733 5368734 5368733 5368732 5368731 5368732 5368723 5368722 5368721 5368722 5368737 5368736 5368735 5368736 
5368709 5368709 5368709 5368754 5368753 5368752 5368753 5368734 5368735 5368734 5368733 999999 0 10737418 10737418 5368736 5368735 5368734 5368735 5368734 5368733 5368732 5368733 5368748 5368747 5368746 5368747 
5368709 5368709 5368709 5368753 5368752 5368751 5368752 5368733 5368734 5368733 5368732 10737418 999999 0 10737418 5368735 5368734 5368733 5368734 5368733 5368732 5368731 5368732 5368747 5368746 5368745 5368746 
5368709 5368709 5368709 5368754 5368753 5368752 5368753 5368734 5368735 5368734 5368733 10737418 10737418 999999 0 5368736 5368735 5368734 5368735 5368734 5368733 5368732 5368733 5368748 5368747 5368746 5368747 
5368709 5368709 5368709 5368755 5368754 5368753 5368754 5368733 5368734 5368733 5368732 0 10737418 10737418 999999 5368737 5368736 5368735 5368736 5368735 5368734 5368733 5368734 5368749 5368748 5368747 5368748 
5368709 5368709 5368709 5368734 5368733 5368732 5368733 5368732 5368733 5368732 5368731 5368734 5368735 5368736 5368735 999999 0 10737418 10737418 5368720 5368721 5368720 5368719 5368734 5368733 5368732 5368733 
5368709 5368709 5368709 5368735 5368734 5368733 5368734 5368733 5368734 5368733 5368732 5368735 5368736 5368737 5368736 10737418 999999 0 10737418 5368721 5368722 5368721 5368720 5368735 5368734 5368733 5368734 
5368709 5368709 5368709 5368736 5368735 5368734 5368735 5368732 5368733 5368732 5368731 5368734 5368735 5368736 5368735 10737418 10737418 999999 0 5368720 5368721 5368720 5368719 5368734 5368733 5368732 5368733 
5368709 5368709 5368709 5368735 5368734 5368733 5368734 5368731 5368732 5368731 5368730 5368733 5368734 5368735 5368734 0 10737418 10737418 999999 5368719 5368720 5368719 5368718 5368733 5368732 5368731 5368732 
5368709 5368709 5368709 5368742 5368741 5368740 5368741 5368722 5368723 5368722 5368721 5368732 5368733 5368734 5368733 5368720 5368719 5368718 5368719 999999 0 10737418 10737418 5368726 5368725 5368724 5368725 
5368709 5368709 5368709 5368741 5368740 5368739 5368740 5368723 5368724 5368723 5368722 5368733 5368734 5368735 5368734 5368721 5368720 5368719 5368720 10737418 999999 0 10737418 5368725 5368724 5368723 5368724 
5368709 5368709 5368709 5368740 5368739 5368738 5368739 5368722 5368723 5368722 5368721 5368732 5368733 5368734 5368733 5368722 5368721 5368720 5368721 10737418 10737418 999999 0 5368724 5368723 5368722 5368723 
5368709 5368709 5368709 5368741 5368740 5368739 5368740 5368721 5368722 5368721 5368720 5368731 5368732 5368733 5368732 5368721 5368720 5368719 5368720 0 10737418 10737418 999999 5368725 5368724 5368723 5368724 
5368709 5368709 5368709 5368740 5368739 5368738 5368739 5368736 5368737 5368736 5368735 5368746 5368747 5368748 5368747 5368734 5368733 5368732 5368733 5368724 5368723 5368724 5368725 999999 0 10737418 10737418 
5368709 5368709 5368709 5368741 5368740 5368739 5368740 5368737 5368738 5368737 5368736 5368747 5368748 5368749 5368748 5368735 5368734 5368733 5368734 5368725 5368724 5368725 5368726 10737418 999999 0 10737418 
5368709 5368709 5368709 5368740 5368739 5368738 5368739 5368736 5368737 5368736 5368735 5368746 5368747 5368748 5368747 5368734 5368733 5368732 5368733 5368724 5368723 5368724 5368725 10737418 10737418 999999 0 
5368709 5368709 5368709 5368739 5368738 5368737 5368738 5368735 5368736 5368735 5368734 5368745 5368746 5368747 5368746 5368733 5368732 5368731 5368732 5368723 5368722 5368723 5368724 0 10737418 10737418 999999 
EOF
